NAME : expansion
TYPE : TSP
DIMENSION : 50
EDGE_WEIGHT_TYPE : EUC_2D
NODE_COORD_SECTION
1 721327 183853
2 806116 23582
3 812606 273601
4 650520 379530
5 674472 236036
6 618490 336719
7 909666 259106
8 602920 439078
9 995047 900420
10 657751 227159
11 803911 176400
12 624257 965402
13 809680 187692
14 668145 152805
15 672873 282793
16 640516 272978
17 714846 130726
18 909980 702592
19 743242 518656
20 757660 395829
21 888313 188712
22 648566 668354
23 756397 240579
24 715683 334170
25 489680 630525
26 596600 841468
27 693245 178640
28 717579 206287
29 724397 133452
30 979490 458708
31 730265 45591
32 978980 746848
33 736757 187836
34 717476 648347
35 835794 198352
36 727846 213627
37 980973 981338
38 727961 528708
39 781388 53051
40 644769 365162
41 714742 205253
42 834415 248150
43 520005 703170
44 922756 43248
45 916185 77879
46 792143 79937
47 755290 214627
48 775551 369627
49 262725 113671
50 656917 171696
EOF
